20 1 7
31 291 550 224 913 662 416 217 302 472 354 201 372 434 100 943 166 709 61 325 
463 476 697 952 832 599 345 29 934 896 14 964 538 563 188 450 576 955 18 878 
427 372 430 150 157 881 92 322 941 504 998 403 331 694 707 514 644 403 543 577 
298 908 892 835 471 79 636 46 386 6 275 164 729 57 313 885 937 756 206 878 
259 555 632 589 248 338 103 891 92 997 819 389 256 710 575 726 141 563 124 526 
568 750 689 648 806 353 532 95 108 89 324 718 643 955 658 890 645 112 132 88 
460 950 829 716 659 403 441 799 317 916 676 236 666 716 883 823 68 414 917 527 
8540 2400 5960 4960 5470 2540 7370 5430 3650 8680 6300 8250 1690 4580 8920 1800 2130 3320 9780 5290 
53530
